r = [
0,28,47,67,31,83,85,15,79,73,49,0
];
p = [
0,27,22,3,22,29,17,11,13,8,20,0
];
e = [
0,2,9,4,8,6,16,18,11,8,18,0
];
d = [
0,113,138,154,114,161,163,98,158,154,126,165
];
d_bar = [
0,116,140,155,116,164,165,99,159,155,128,165
];
w = [
0,0.666666667,4.5,4,4,2,8,18,11,8,9,0
];
